(set-logic BV)

(synth-fun deobfucated ( (c (BitVec 64))  (b (BitVec 64))  ) (BitVec 64)
	(
		(Start (BitVec 64)
			(
				(bvnot Start)
				(bvxor Start Start)
				(bvand Start Start)
				(bvor Start Start)
				(bvneg Start)
				(bvadd Start Start)
				(bvmul Start Start)
				(bvsub Start Start)
				c b
			)
		)
	)
)

(constraint (= (deobfucated #x0000000037e607d6 #x0000000004485868) #xffffffffdd1bfdfd))
(constraint (= (deobfucated #x00000000232e1953 #x0000000013af6a2c) #xfffffffffdfbefad))
(constraint (= (deobfucated #x00000000218d8d35 #x000000002b9e6090) #xffffffffdefefacb))
(constraint (= (deobfucated #x0000000018c77b57 #x0000000004ece8fb) #xfffffffff73ffdfe))
(constraint (= (deobfucated #x0000000025dfdf00 #x000000003b523632) #xffffffffdb24aeff))
(constraint (= (deobfucated #x0000000032b650a2 #x00000000160161ef) #xfffffffffd6befdf))
(constraint (= (deobfucated #x000000001ba3b239 #x0000000037d801b3) #xffffffffecfd6fce))
(constraint (= (deobfucated #x00000000320f6c12 #x00000000358d96d9) #xffffffffddfadbef))
(constraint (= (deobfucated #x0000000007c23a89 #x000000003a70c859) #xfffffffff93ffff6))
(constraint (= (deobfucated #x000000001dd48d09 #x0000000035fe3dd3) #xfffffffff67f7ffe))
(constraint (= (deobfucated #x000000000c6cc074 #x00000000121e6767) #xfffffffffbd77fbf))
(constraint (= (deobfucated #x000000002d79e9a9 #x000000001b03ccf2) #xffffffffd6f79f57))
(constraint (= (deobfucated #x000000002dc7ecca #x000000001e221d7f) #xfffffffffbfe7bbf))
(constraint (= (deobfucated #x000000002454d8bd #x000000001c421707) #xffffffffdfaf67f6))
(constraint (= (deobfucated #x000000001910e5cd #x000000001a8bc0ce) #xffffffffe6ef1b3f))
(constraint (= (deobfucated #x000000002674fe17 #x0000000019992dc6) #xffffffffffef37fb))
(constraint (= (deobfucated #x000000000eae24c0 #x00000000392a6e4b) #xfffffffff3d5df7f))
(constraint (= (deobfucated #x0000000025f601c4 #x0000000032626862) #xfffffffffa9fff3b))
(constraint (= (deobfucated #x000000003b102ad6 #x000000001d16aea8) #xfffffffff6efff7d))
(constraint (= (deobfucated #x0000000006a4b0c7 #x000000002c6cdaf2) #xfffffffffb7fcfff))
(check-synth)